sing20190303.12
TTAA 53121 48698
99005 28857 08505 00070 27856 06008 92756 21411 02012
85489 18212 28008 70134 10260 14508 50586 03559 00511
40760 14356 17003 30972 29164 18009 25099 39363 15021
20248 52357 14024 15427 67550 14026
88999
77999=
